; SWAP1 POP DUP1 SWAP2 POP => SWAP2 POP POP DUP1
(set-option :produce-proofs true)
; 
(set-info :status unknown)
(declare-fun storage_t ((_ BitVec 256) (_ BitVec 256) (_ BitVec 256) Int (_ BitVec 256)) (_ BitVec 256))
(declare-fun storage_s ((_ BitVec 256) (_ BitVec 256) (_ BitVec 256) Int (_ BitVec 256)) (_ BitVec 256))
(declare-fun exc_halt_t (Int) Bool)
(declare-fun exc_halt_s (Int) Bool)
(declare-fun sc_t (Int) (_ BitVec 6))
(declare-fun stack_t ((_ BitVec 256) (_ BitVec 256) (_ BitVec 256) Int (_ BitVec 6)) (_ BitVec 256))
(declare-fun stack_s ((_ BitVec 256) (_ BitVec 256) (_ BitVec 256) Int (_ BitVec 6)) (_ BitVec 256))
(declare-fun sc_s (Int) (_ BitVec 6))
(declare-fun used_gas_t ((_ BitVec 256) (_ BitVec 256) (_ BitVec 256) Int) Int)
(declare-fun used_gas_s ((_ BitVec 256) (_ BitVec 256) (_ BitVec 256) Int) Int)
(assert
 (exists ((x_0 (_ BitVec 256)) (x_1 (_ BitVec 256)) (x_2 (_ BitVec 256)) )(let (($x9935 (forall ((w (_ BitVec 256)) )(let ((?x7928 (storage_t x_0 x_1 x_2 4 w)))
 (let ((?x7312 (storage_s x_0 x_1 x_2 5 w)))
 (= ?x7312 ?x7928))))
 ))
 (let (($x3723 (exc_halt_t 4)))
 (let (($x3979 (exc_halt_s 5)))
 (let (($x7567 (= $x3979 $x3723)))
 (let (($x3129 (forall ((n (_ BitVec 6)) )(let ((?x3757 (sc_t 4)))
 (let (($x9177 (bvsle ?x3757 n)))
 (let ((?x1476 (stack_t x_0 x_1 x_2 4 n)))
 (let ((?x2415 (stack_s x_0 x_1 x_2 5 n)))
 (let (($x7520 (= ?x2415 ?x1476)))
 (or $x7520 $x9177)))))))
 ))
 (let ((?x3757 (sc_t 4)))
 (let ((?x805 (sc_s 5)))
 (let (($x9143 (= ?x805 ?x3757)))
 (let ((?x11698 (used_gas_t x_0 x_1 x_2 0)))
 (let ((?x1263 (used_gas_s x_0 x_1 x_2 0)))
 (let (($x6506 (= ?x1263 ?x11698)))
 (let (($x8352 (forall ((w (_ BitVec 256)) )(let ((?x6896 (storage_t x_0 x_1 x_2 0 w)))
 (let ((?x4071 (storage_s x_0 x_1 x_2 0 w)))
 (= ?x4071 ?x6896))))
 ))
 (let (($x56 (exc_halt_t 0)))
 (let (($x57 (exc_halt_s 0)))
 (let (($x58 (= $x57 $x56)))
 (let (($x3034 (forall ((n (_ BitVec 6)) )(let ((?x63 (sc_t 0)))
 (let (($x4861 (bvsle ?x63 n)))
 (let ((?x8737 (stack_t x_0 x_1 x_2 0 n)))
 (let ((?x8646 (stack_s x_0 x_1 x_2 0 n)))
 (let (($x2657 (= ?x8646 ?x8737)))
 (or $x2657 $x4861)))))))
 ))
 (let ((?x63 (sc_t 0)))
 (let ((?x72 (sc_s 0)))
 (let (($x73 (= ?x72 ?x63)))
 (let (($x3892 (exc_halt_t 3)))
 (let (($x2906 (not (= ((_ extract 6 6) (bvadd (_ bv1 7) (concat (_ bv0 1) (sc_t 3)))) (_ bv0 1)))))
 (let (($x6161 (forall ((w (_ BitVec 256)) )(let ((?x7069 (storage_t x_0 x_1 x_2 3 w)))
 (let ((?x7928 (storage_t x_0 x_1 x_2 4 w)))
 (= ?x7928 ?x7069))))
 ))
 (let (($x10646 (forall ((n (_ BitVec 6)) )(let ((?x6870 (stack_t x_0 x_1 x_2 3 n)))
 (let ((?x1476 (stack_t x_0 x_1 x_2 4 n)))
 (or (= ?x1476 ?x6870) (bvsle (bvadd (_ bv63 6) (sc_t 3)) n)))))
 ))
 (let (($x7086 (= ?x3757 (bvadd (_ bv1 6) (sc_t 3)))))
 (let (($x8463 (= (used_gas_t x_0 x_1 x_2 4) (+ 3 (used_gas_t x_0 x_1 x_2 3)))))
 (let ((?x9893 (sc_t 3)))
 (let ((?x9862 (bvadd (_ bv63 6) ?x9893)))
 (let ((?x6065 (stack_t x_0 x_1 x_2 3 ?x9862)))
 (let (($x6168 (= $x3892 (or (exc_halt_t 2) (not (bvsle (_ bv0 6) (bvadd (_ bv63 6) (sc_t 2))))))))
 (let (($x7496 (forall ((w (_ BitVec 256)) )(let ((?x10949 (storage_t x_0 x_1 x_2 2 w)))
 (let ((?x7069 (storage_t x_0 x_1 x_2 3 w)))
 (= ?x7069 ?x10949))))
 ))
 (let (($x9378 (forall ((n (_ BitVec 6)) )(let ((?x7193 (stack_t x_0 x_1 x_2 2 n)))
 (let ((?x6870 (stack_t x_0 x_1 x_2 3 n)))
 (or (= ?x6870 ?x7193) (bvsle (bvadd (_ bv63 6) (sc_t 2)) n)))))
 ))
 (let ((?x4056 (sc_t 2)))
 (let ((?x4363 (bvadd (_ bv63 6) ?x4056)))
 (let (($x7509 (= ?x9893 ?x4363)))
 (let ((?x9618 (used_gas_t x_0 x_1 x_2 3)))
 (let (($x903 (exc_halt_t 2)))
 (let (($x5327 (= $x903 (or (exc_halt_t 1) (not (bvsle (_ bv0 6) (bvadd (_ bv63 6) (sc_t 1))))))))
 (let (($x2320 (forall ((w (_ BitVec 256)) )(let ((?x2500 (storage_t x_0 x_1 x_2 1 w)))
 (let ((?x10949 (storage_t x_0 x_1 x_2 2 w)))
 (= ?x10949 ?x2500))))
 ))
 (let (($x3541 (forall ((n (_ BitVec 6)) )(let ((?x5461 (stack_t x_0 x_1 x_2 1 n)))
 (let ((?x7193 (stack_t x_0 x_1 x_2 2 n)))
 (or (= ?x7193 ?x5461) (bvsle (bvadd (_ bv63 6) (sc_t 1)) n)))))
 ))
 (let ((?x5910 (used_gas_t x_0 x_1 x_2 2)))
 (let (($x1920 (exc_halt_t 1)))
 (let (($x5700 (= $x1920 (or $x56 (not (bvsle (_ bv0 6) (bvadd (_ bv61 6) ?x63)))))))
 (let (($x4749 (forall ((w (_ BitVec 256)) )(let ((?x6896 (storage_t x_0 x_1 x_2 0 w)))
 (let ((?x2500 (storage_t x_0 x_1 x_2 1 w)))
 (= ?x2500 ?x6896))))
 ))
 (let (($x5807 (forall ((n (_ BitVec 6)) )(let ((?x63 (sc_t 0)))
 (let ((?x6853 (bvadd (_ bv61 6) ?x63)))
 (let (($x11663 (bvsle ?x6853 n)))
 (let ((?x8737 (stack_t x_0 x_1 x_2 0 n)))
 (let ((?x5461 (stack_t x_0 x_1 x_2 1 n)))
 (or (= ?x5461 ?x8737) $x11663)))))))
 ))
 (let ((?x4023 (sc_t 1)))
 (let (($x11665 (= ?x4023 ?x63)))
 (let (($x10919 (= (stack_t x_0 x_1 x_2 1 (bvadd (_ bv62 6) ?x4023)) (stack_t x_0 x_1 x_2 0 (bvadd (_ bv62 6) ?x63)))))
 (let (($x1291 (= (stack_t x_0 x_1 x_2 1 (bvadd (_ bv61 6) ?x4023)) (stack_t x_0 x_1 x_2 0 (bvadd (_ bv63 6) ?x63)))))
 (let (($x8931 (= (stack_t x_0 x_1 x_2 1 (bvadd (_ bv63 6) ?x4023)) (stack_t x_0 x_1 x_2 0 (bvadd (_ bv61 6) ?x63)))))
 (let (($x5252 (= $x3979 (or (exc_halt_s 4) (not (bvsle (_ bv0 6) (bvadd (_ bv63 6) (sc_s 4))))))))
 (let (($x1911 (forall ((w (_ BitVec 256)) )(let ((?x11263 (storage_s x_0 x_1 x_2 4 w)))
 (let ((?x7312 (storage_s x_0 x_1 x_2 5 w)))
 (= ?x7312 ?x11263))))
 ))
 (let (($x6838 (forall ((n (_ BitVec 6)) )(let ((?x8775 (stack_s x_0 x_1 x_2 4 n)))
 (let ((?x2415 (stack_s x_0 x_1 x_2 5 n)))
 (or (bvsle (bvadd (_ bv63 6) (sc_s 4)) n) (= ?x2415 ?x8775)))))
 ))
 (let (($x7691 (= (used_gas_s x_0 x_1 x_2 5) (+ 2 (used_gas_s x_0 x_1 x_2 4)))))
 (let (($x64 (exc_halt_s 4)))
 (let (($x11810 (= $x64 (or (exc_halt_s 3) (not (bvsle (_ bv0 6) (bvadd (_ bv61 6) (sc_s 3))))))))
 (let (($x8088 (forall ((w (_ BitVec 256)) )(let ((?x6914 (storage_s x_0 x_1 x_2 3 w)))
 (let ((?x11263 (storage_s x_0 x_1 x_2 4 w)))
 (= ?x11263 ?x6914))))
 ))
 (let (($x5529 (forall ((n (_ BitVec 6)) )(let ((?x2676 (stack_s x_0 x_1 x_2 3 n)))
 (let ((?x8775 (stack_s x_0 x_1 x_2 4 n)))
 (or (= ?x8775 ?x2676) (bvsle (bvadd (_ bv61 6) (sc_s 3)) n)))))
 ))
 (let ((?x275 (sc_s 3)))
 (let ((?x4305 (sc_s 4)))
 (let (($x8104 (= ?x4305 ?x275)))
 (let ((?x9961 (used_gas_s x_0 x_1 x_2 4)))
 (let (($x10661 (= (stack_s x_0 x_1 x_2 4 (bvadd (_ bv62 6) ?x4305)) (stack_s x_0 x_1 x_2 3 (bvadd (_ bv62 6) ?x275)))))
 (let ((?x7846 (bvadd (_ bv63 6) ?x275)))
 (let ((?x6307 (stack_s x_0 x_1 x_2 3 ?x7846)))
 (let (($x3705 (= (stack_s x_0 x_1 x_2 4 (bvadd (_ bv63 6) ?x4305)) (stack_s x_0 x_1 x_2 3 (bvadd (_ bv61 6) ?x275)))))
 (let (($x397 (not (= ((_ extract 6 6) (bvadd (_ bv1 7) (concat (_ bv0 1) (sc_s 2)))) (_ bv0 1)))))
 (let (($x247 (exc_halt_s 2)))
 (let (($x292 (exc_halt_s 3)))
 (let (($x7081 (forall ((w (_ BitVec 256)) )(let ((?x4260 (storage_s x_0 x_1 x_2 2 w)))
 (let ((?x6914 (storage_s x_0 x_1 x_2 3 w)))
 (= ?x6914 ?x4260))))
 ))
 (let (($x4314 (forall ((n (_ BitVec 6)) )(let ((?x1667 (stack_s x_0 x_1 x_2 2 n)))
 (let ((?x2676 (stack_s x_0 x_1 x_2 3 n)))
 (or (= ?x2676 ?x1667) (bvsle (bvadd (_ bv63 6) (sc_s 2)) n)))))
 ))
 (let (($x5832 (= ?x275 (bvadd (_ bv1 6) (sc_s 2)))))
 (let ((?x4825 (used_gas_s x_0 x_1 x_2 3)))
 (let ((?x218 (sc_s 2)))
 (let ((?x9274 (bvadd (_ bv63 6) ?x218)))
 (let ((?x4323 (stack_s x_0 x_1 x_2 2 ?x9274)))
 (let (($x9953 (= $x247 (or (exc_halt_s 1) (not (bvsle (_ bv0 6) (bvadd (_ bv63 6) (sc_s 1))))))))
 (let (($x2179 (forall ((w (_ BitVec 256)) )(let ((?x8520 (storage_s x_0 x_1 x_2 1 w)))
 (let ((?x4260 (storage_s x_0 x_1 x_2 2 w)))
 (= ?x4260 ?x8520))))
 ))
 (let (($x10588 (forall ((n (_ BitVec 6)) )(let ((?x8881 (stack_s x_0 x_1 x_2 1 n)))
 (let ((?x1667 (stack_s x_0 x_1 x_2 2 n)))
 (let ((?x154 (sc_s 1)))
 (let ((?x2046 (bvadd (_ bv63 6) ?x154)))
 (let (($x3117 (bvsle ?x2046 n)))
 (or $x3117 (= ?x1667 ?x8881))))))))
 ))
 (let ((?x10019 (used_gas_s x_0 x_1 x_2 2)))
 (let (($x10241 (forall ((w (_ BitVec 256)) )(let ((?x4071 (storage_s x_0 x_1 x_2 0 w)))
 (let ((?x8520 (storage_s x_0 x_1 x_2 1 w)))
 (= ?x8520 ?x4071))))
 ))
 (let (($x1960 (forall ((n (_ BitVec 6)) )(let ((?x8646 (stack_s x_0 x_1 x_2 0 n)))
 (let ((?x8881 (stack_s x_0 x_1 x_2 1 n)))
 (or (= ?x8881 ?x8646) (bvsle (bvadd (_ bv62 6) (sc_s 0)) n)))))
 ))
 (let (($x10390 (= (stack_s x_0 x_1 x_2 1 (bvadd (_ bv62 6) (sc_s 1))) (stack_s x_0 x_1 x_2 0 (bvadd (_ bv63 6) ?x72)))))
 (let (($x10054 (= (stack_s x_0 x_1 x_2 1 (bvadd (_ bv63 6) (sc_s 1))) (stack_s x_0 x_1 x_2 0 (bvadd (_ bv62 6) ?x72)))))
 (let (($x8085 (forall ((w (_ BitVec 256)) )(let ((?x4071 (storage_s x_0 x_1 x_2 0 w)))
 (= ?x4071 (_ bv0 256))))
 ))
 (let (($x2232 (= ?x1263 0)))
 (let (($x5326 (not $x57)))
 (let (($x5738 (= (stack_s x_0 x_1 x_2 0 (_ bv2 6)) x_2)))
 (let (($x10319 (= (stack_s x_0 x_1 x_2 0 (_ bv1 6)) x_1)))
 (let (($x5273 (= (stack_s x_0 x_1 x_2 0 (_ bv0 6)) x_0)))
 (let (($x6815 (= ?x72 (_ bv3 6))))
 (and $x6815 $x5273 $x10319 $x5738 $x5326 $x2232 $x8085 $x10054 $x10390 (= (used_gas_s x_0 x_1 x_2 1) (+ 3 ?x1263)) (= (sc_s 1) ?x72) $x1960 $x10241 (= (exc_halt_s 1) (or $x57 (not (bvsle (_ bv0 6) (bvadd (_ bv62 6) ?x72))))) (= ?x10019 (+ 2 (used_gas_s x_0 x_1 x_2 1))) (= ?x218 (bvadd (_ bv63 6) (sc_s 1))) $x10588 $x2179 $x9953 (= ?x6307 ?x4323) (= (stack_s x_0 x_1 x_2 3 ?x9274) ?x4323) (= ?x4825 (+ 3 ?x10019)) $x5832 $x4314 $x7081 (= $x292 (or $x247 $x397 (not (bvsle (_ bv0 6) ?x9274)))) $x3705 (= (stack_s x_0 x_1 x_2 4 (bvadd (_ bv61 6) ?x4305)) ?x6307) $x10661 (= ?x9961 (+ 3 ?x4825)) $x8104 $x5529 $x8088 $x11810 $x7691 (= ?x805 (bvadd (_ bv63 6) ?x4305)) $x6838 $x1911 $x5252 $x8931 $x1291 $x10919 (= (used_gas_t x_0 x_1 x_2 1) (+ 3 ?x11698)) $x11665 $x5807 $x4749 $x5700 (= ?x5910 (+ 2 (used_gas_t x_0 x_1 x_2 1))) (= ?x4056 (bvadd (_ bv63 6) ?x4023)) $x3541 $x2320 $x5327 (= ?x9618 (+ 2 ?x5910)) $x7509 $x9378 $x7496 $x6168 (= (stack_t x_0 x_1 x_2 4 (bvadd (_ bv63 6) ?x3757)) ?x6065) (= (stack_t x_0 x_1 x_2 4 ?x9862) ?x6065) $x8463 $x7086 $x10646 $x6161 (= $x3723 (or $x2906 $x3892 (not (bvsle (_ bv0 6) ?x9862)))) $x73 $x3034 $x58 $x8352 $x6506 (not (and $x9143 $x3129 $x7567 $x9935))))))))))))))))))))))))))))))))))))))))))))))))))))))))))))))))))))))))))))))))))))))))))))))
 )
(check-sat)
(get-proof)
